;############################### INPUT MODELS ###############################
;
(declare-const input_1 (Vector Int))
(assert (= (size input_1) 2))
;
(declare-const input_2 (Vector Int))
(assert (= (size input_2) 2))
;
